
Route #1: 9 58 12 56 15 55 54 22 45 25 63 
Route #2: 5 65 37 51 24 43 32 
Route #3: 33 47 26 41 27 46 64 
Route #4: 36 39 42 44 40 34 35 66 16 
Route #5: 17 50 23 8 59 18 
Route #6: 13 28 48 21 52 14 
Route #7: 31 38 29 53 20 49 4 
Route #8: 3 30 57 62 61 60 
Route #9: 6 11 1 19 7 
Route #10: 10 2 
cost 1590.31
total time is 6.9